Traveling Salesman Problem/TSP_generados/Aleatorio1621103242_6.tsp
NAME: Aleatorio1621103242_6.tsp
COMMENT: Randomly generated scenario
TYPE: TSP
DIMENSION: 6
EDGE_WEIGHT_TYPE: ATT
NODE_COORD_SECTION
1 47.02 29.97
2 38.61 7.45
3 36.42 28.52
4 22.99 39.97
5 41.55 4.74
6 48.34 16.08
