Traveling Salesman Problem/TSP_generados/Aleatorio1621103242_6.opt.tour
NAME: Aleatorio1621103242_6.opt.tour
COMMENT: Optimal solution for Aleatorio1621103242_6 (95.59238824307178)
TYPE: TOUR
DIMENSION: 6
TOUR_SECTION
1 3 4 2 5 6
-1
EOF
